(declare-const v0 Bool)
(declare-const v1 Bool)
(declare-const v2 Bool)
(declare-const v3 Bool)
(assert (edge (or v1 (not v0)) (or v0 v2)))
(assert (edge (not v1) (or v1 (not v3))))
(assert (edge (or v1 (not v0)) true))
(assert (edge (or (not v2) (not v3)) (or v2 (not v3))))
(assert (edge v1 (or v0 (not v3))))
(assert (not (edge (or (not v1) v3) (or v0 v1))))